knapPI_6_1000_10000_59
n 1000
c 502812
z 502812
time 1.8
1,7310,7310,1
2,8789,8789,1
3,1976,1976,1
4,1552,1552,1
5,3363,3363,1
6,3805,3805,1
7,8416,8416,1
8,4673,4673,1
9,7748,7748,1
10,412,412,1
11,8417,8417,1
12,3184,3184,1
13,9333,9333,1
14,4442,4442,1
15,9218,9218,1
16,3123,3123,1
17,8406,8406,1
18,1179,1179,1
19,8089,8089,1
20,7854,7854,1
21,5088,5088,1
22,783,783,1
23,5515,5515,1
24,834,834,1
25,802,802,1
26,2521,2521,1
27,7318,7318,1
28,6940,6940,1
29,527,527,1
30,1962,1962,1
31,9814,9814,1
32,2809,2809,1
33,3678,3678,1
34,1689,1689,1
35,8980,8980,1
36,9012,9012,1
37,1424,1424,1
38,602,602,1
39,1714,1714,1
40,7939,7939,1
41,9582,9582,1
42,5591,5591,1
43,3998,3998,1
44,2846,2846,1
45,3134,3134,1
46,6791,6791,1
47,1059,1059,1
48,142,142,1
49,5482,5482,1
50,90,90,1
51,2936,2936,1
52,8564,8564,1
53,7505,7505,1
54,853,853,1
55,1922,1922,1
56,9882,9882,1
57,9431,9431,1
58,8111,8111,1
59,14,14,1
60,9947,9947,1
61,1898,1898,1
62,2065,2065,1
63,6040,6040,1
64,5394,5394,1
65,9164,9164,1
66,8463,8463,1
67,3878,3878,1
68,6281,6281,1
69,2899,2899,1
70,2204,2204,1
71,526,526,1
72,6836,6836,1
73,9193,9193,1
74,6671,6671,1
75,1936,1936,1
76,2626,2626,1
77,6314,6314,1
78,2786,2786,1
79,5310,5310,1
80,1379,1379,1
81,2844,2844,1
82,3870,3870,1
83,9944,9944,1
84,2550,2550,1
85,6942,6942,1
86,5063,5063,1
87,9830,9830,1
88,4888,4888,1
89,1635,1635,1
90,9258,9258,1
91,4139,4139,1
92,5511,5511,1
93,4466,4466,1
94,7871,7871,1
95,295,295,1
96,8117,8117,1
97,7203,7203,1
98,1850,1850,1
99,6330,6330,1
100,9469,9469,1
101,2865,2865,1
102,1794,1794,1
103,4165,4165,1
104,2915,2915,1
105,1150,1150,1
106,6515,6515,1
107,5606,5606,1
108,282,282,1
109,1023,1023,1
110,2735,2735,1
111,1969,1969,1
112,4211,4211,1
113,5128,5128,1
114,4702,4702,1
115,5338,5338,1
116,9364,9364,1
117,3758,3758,1
118,516,516,1
119,7766,7766,1
120,5135,5135,1
121,9780,9780,1
122,9668,9668,1
123,9473,9473,1
124,9670,9670,1
125,2122,2122,1
126,1990,1990,1
127,533,533,1
128,6739,6739,1
129,9720,9720,1
130,7059,7059,1
131,6899,6899,1
132,5314,5314,1
133,5439,5439,1
134,6444,6444,1
135,9040,9040,1
136,7776,7776,1
137,2814,2814,1
138,4197,4197,1
139,8492,8492,1
140,2273,2273,1
141,1221,1221,1
142,90,90,1
143,8478,8478,1
144,5314,5314,1
145,2862,2862,1
146,2860,2860,1
147,5442,5442,1
148,3196,3196,1
149,9929,9929,1
150,9812,9812,1
151,8908,8908,1
152,8974,8974,1
153,810,810,1
154,4204,4204,1
155,5998,5998,1
156,4151,4151,1
157,4708,4708,1
158,3631,3631,1
159,6728,6728,1
160,1444,1444,1
161,9615,9615,1
162,2698,2698,1
163,6590,6590,1
164,8764,8764,1
165,2924,2924,1
166,2382,2382,1
167,8222,8222,1
168,5282,5282,1
169,4790,4790,1
170,6052,6052,1
171,2211,2211,1
172,7878,7878,1
173,5514,5514,1
174,7573,7573,1
175,4109,4109,1
176,7077,7077,1
177,4983,4983,1
178,246,246,1
179,7054,7054,1
180,1042,1042,1
181,4784,4784,1
182,9061,9061,1
183,5485,5485,1
184,7738,7738,1
185,5948,5948,1
186,7742,7742,1
187,2806,2806,1
188,3988,3988,1
189,1071,1071,1
190,2028,2028,1
191,8885,8885,1
192,1231,1231,1
193,4971,4971,1
194,4582,4582,1
195,4640,4640,1
196,4054,4054,1
197,8777,8777,1
198,9204,9204,1
199,9730,9730,1
200,9018,9018,1
201,8566,8566,1
202,6156,6156,1
203,2246,2246,1
204,1640,1640,1
205,3509,3509,1
206,2378,2378,1
207,9747,9747,1
208,4728,4728,1
209,3195,3195,1
210,2857,2857,1
211,247,247,1
212,8173,8173,1
213,6574,6574,1
214,7666,7666,1
215,645,645,1
216,5629,5629,1
217,490,490,1
218,8389,8389,1
219,1581,1581,1
220,9952,9952,1
221,2556,2556,1
222,4953,4953,1
223,9415,9415,1
224,923,923,1
225,8488,8488,1
226,656,656,1
227,6465,6465,1
228,5458,5458,1
229,1425,1425,1
230,6531,6531,1
231,3183,3183,1
232,4621,4621,1
233,5028,5028,1
234,4096,4096,1
235,4384,4384,1
236,7643,7643,1
237,1734,1734,1
238,9782,9782,1
239,9784,9784,1
240,1191,1191,1
241,227,227,1
242,5880,5880,1
243,8529,8529,1
244,1986,1986,1
245,7777,7777,1
246,7805,7805,1
247,4045,4045,1
248,3046,3046,1
249,876,876,1
250,2963,2963,1
251,4581,4581,1
252,9673,9673,1
253,5887,5887,1
254,2539,2539,1
255,1970,1970,1
256,4748,4748,1
257,1806,1806,1
258,6854,6854,1
259,7043,7043,1
260,4056,4056,1
261,5230,5230,1
262,3375,3375,1
263,5076,5076,1
264,7972,7972,1
265,8373,8373,1
266,2066,2066,1
267,7305,7305,1
268,4655,4655,1
269,4814,4814,1
270,2972,2972,1
271,4320,4320,1
272,3614,3614,1
273,8056,8056,1
274,5614,5614,1
275,3231,3231,1
276,7314,7314,1
277,4195,4195,1
278,8438,8438,1
279,6714,6714,1
280,3562,3562,1
281,3195,3195,1
282,9166,9166,1
283,2601,2601,1
284,3101,3101,1
285,9697,9697,1
286,5257,5257,1
287,8655,8655,1
288,6607,6607,1
289,6555,6555,1
290,5507,5507,1
291,5115,5115,1
292,5949,5949,1
293,2343,2343,1
294,8622,8622,1
295,2687,2687,1
296,5022,5022,1
297,9713,9713,1
298,520,520,1
299,1526,1526,1
300,8238,8238,1
301,2895,2895,1
302,6273,6273,1
303,7958,7958,1
304,4987,4987,1
305,4209,4209,1
306,4515,4515,1
307,3732,3732,1
308,3858,3858,1
309,7341,7341,1
310,1198,1198,1
311,5619,5619,1
312,6108,6108,1
313,1711,1711,1
314,7810,7810,1
315,4038,4038,1
316,3000,3000,1
317,7094,7094,1
318,1340,1340,1
319,5932,5932,1
320,7427,7427,1
321,9892,9892,1
322,6953,6953,1
323,905,905,1
324,5639,5639,1
325,8410,8410,1
326,6442,6442,1
327,9247,9247,1
328,3657,3657,1
329,9033,9033,1
330,1566,1566,1
331,9557,9557,1
332,2478,2478,1
333,469,469,1
334,655,655,1
335,9141,9141,1
336,1707,1707,1
337,7144,7144,1
338,7083,7083,1
339,9534,9534,1
340,4071,4071,1
341,6359,6359,1
342,5138,5138,1
343,4260,4260,1
344,2491,2491,1
345,4485,4485,1
346,2977,2977,1
347,6075,6075,1
348,9010,9010,1
349,9358,9358,1
350,6420,6420,1
351,1526,1526,1
352,9149,9149,1
353,5545,5545,1
354,5263,5263,1
355,7703,7703,1
356,5708,5708,1
357,4987,4987,1
358,529,529,1
359,1402,1402,1
360,2104,2104,1
361,4312,4312,1
362,798,798,1
363,1530,1530,1
364,2827,2827,1
365,7581,7581,1
366,3970,3970,1
367,4649,4649,1
368,329,329,1
369,2230,2230,1
370,5474,5474,1
371,2671,2671,1
372,2168,2168,1
373,4530,4530,1
374,6414,6414,1
375,682,682,1
376,5228,5228,1
377,2733,2733,1
378,559,559,1
379,7087,7087,1
380,4753,4753,1
381,5820,5820,1
382,3037,3037,1
383,7269,7269,1
384,6494,6494,1
385,3398,3398,1
386,5123,5123,1
387,7317,7317,1
388,3001,3001,1
389,547,547,1
390,2612,2612,1
391,8587,8587,1
392,9061,9061,1
393,777,777,1
394,3445,3445,1
395,1751,1751,1
396,5081,5081,1
397,9070,9070,1
398,1801,1801,1
399,2113,2113,1
400,5870,5870,1
401,9780,9780,1
402,1085,1085,1
403,7799,7799,1
404,1922,1922,1
405,9747,9747,1
406,7904,7904,1
407,4498,4498,1
408,1644,1644,1
409,5193,5193,1
410,7504,7504,1
411,3805,3805,1
412,7663,7663,1
413,5501,5501,1
414,2788,2788,1
415,1090,1090,1
416,4038,4038,1
417,4392,4392,1
418,4577,4577,1
419,2677,2677,1
420,9110,9110,1
421,7255,7255,1
422,889,889,1
423,2252,2252,1
424,5282,5282,1
425,6408,6408,1
426,3689,3689,1
427,562,562,1
428,3446,3446,1
429,1566,1566,1
430,2733,2733,1
431,8392,8392,1
432,4171,4171,1
433,3218,3218,1
434,8305,8305,1
435,8536,8536,1
436,6646,6646,1
437,8083,8083,1
438,2661,2661,1
439,7611,7611,1
440,6666,6666,1
441,4311,4311,1
442,4433,4433,1
443,414,414,1
444,1413,1413,1
445,8176,8176,1
446,6510,6510,1
447,385,385,1
448,2038,2038,1
449,5446,5446,1
450,768,768,1
451,6490,6490,1
452,7837,7837,1
453,773,773,1
454,244,244,1
455,4098,4098,1
456,7468,7468,1
457,9830,9830,1
458,3118,3118,1
459,7499,7499,1
460,4697,4697,1
461,8340,8340,1
462,2414,2414,1
463,7939,7939,1
464,1114,1114,1
465,5788,5788,1
466,2217,2217,1
467,6225,6225,1
468,7801,7801,1
469,1730,1730,1
470,2374,2374,1
471,1420,1420,1
472,5437,5437,1
473,2879,2879,1
474,6884,6884,1
475,1752,1752,1
476,3399,3399,1
477,6452,6452,1
478,495,495,1
479,1004,1004,1
480,4836,4836,1
481,2993,2993,1
482,4768,4768,1
483,2484,2484,1
484,9904,9904,1
485,4603,4603,1
486,7105,7105,1
487,9395,9395,1
488,3273,3273,1
489,140,140,1
490,9989,9989,1
491,336,336,1
492,7468,7468,1
493,128,128,1
494,799,799,1
495,7367,7367,1
496,2791,2791,1
497,4410,4410,1
498,7538,7538,1
499,1202,1202,1
500,8435,8435,1
501,5396,5396,1
502,6947,6947,1
503,7370,7370,1
504,6703,6703,1
505,6482,6482,1
506,924,924,1
507,3648,3648,1
508,703,703,1
509,4768,4768,1
510,746,746,1
511,4428,4428,1
512,7699,7699,1
513,8347,8347,1
514,1372,1372,1
515,2907,2907,1
516,2497,2497,1
517,6916,6916,1
518,1964,1964,1
519,9575,9575,1
520,7380,7380,1
521,8408,8408,1
522,5626,5626,1
523,7109,7109,1
524,5405,5405,1
525,4467,4467,1
526,5431,5431,1
527,749,749,1
528,7896,7896,1
529,3789,3789,1
530,8250,8250,1
531,8973,8973,1
532,6005,6005,1
533,5590,5590,1
534,1046,1046,1
535,2238,2238,1
536,6344,6344,1
537,2837,2837,1
538,4265,4265,1
539,948,948,1
540,6171,6171,1
541,5214,5214,1
542,6860,6860,1
543,3434,3434,1
544,248,248,1
545,6797,6797,1
546,4437,4437,1
547,5445,5445,1
548,3884,3884,1
549,929,929,1
550,2398,2398,1
551,9724,9724,1
552,4281,4281,1
553,4035,4035,1
554,9820,9820,1
555,7340,7340,1
556,8375,8375,1
557,7378,7378,1
558,966,966,1
559,8140,8140,1
560,504,504,1
561,9429,9429,1
562,773,773,1
563,7561,7561,1
564,8156,8156,1
565,2168,2168,1
566,2348,2348,1
567,7322,7322,1
568,3363,3363,1
569,699,699,1
570,3164,3164,1
571,4350,4350,1
572,2059,2059,1
573,1941,1941,1
574,9431,9431,1
575,412,412,1
576,2788,2788,1
577,5813,5813,1
578,9449,9449,1
579,776,776,1
580,5419,5419,1
581,368,368,1
582,8021,8021,1
583,9527,9527,1
584,9000,9000,1
585,8976,8976,1
586,3590,3590,1
587,1008,1008,1
588,2410,2410,1
589,7332,7332,1
590,8836,8836,1
591,5902,5902,1
592,5189,5189,1
593,5512,5512,1
594,422,422,1
595,5172,5172,1
596,8372,8372,1
597,2672,2672,1
598,2062,2062,1
599,4398,4398,1
600,1604,1604,1
601,8644,8644,1
602,1867,1867,1
603,1681,1681,1
604,3668,3668,1
605,6191,6191,1
606,5655,5655,1
607,4025,4025,1
608,9110,9110,1
609,2527,2527,1
610,2894,2894,1
611,2938,2938,1
612,9044,9044,1
613,9565,9565,1
614,4833,4833,1
615,1263,1263,1
616,7324,7324,1
617,7058,7058,1
618,1639,1639,1
619,5518,5518,1
620,5533,5533,1
621,5714,5714,1
622,9878,9878,1
623,5171,5171,1
624,4621,4621,1
625,9246,9246,1
626,313,313,1
627,4205,4205,1
628,331,331,1
629,8505,8505,1
630,3726,3726,1
631,6966,6966,1
632,8381,8381,1
633,4743,4743,1
634,8231,8231,1
635,8465,8465,1
636,9608,9608,1
637,8237,8237,1
638,4582,4582,1
639,6329,6329,1
640,6099,6099,1
641,5387,5387,1
642,7873,7873,1
643,7741,7741,1
644,6146,6146,1
645,8362,8362,1
646,4990,4990,1
647,7799,7799,1
648,2729,2729,1
649,5429,5429,1
650,3093,3093,1
651,8304,8304,1
652,317,317,1
653,877,877,1
654,6866,6866,1
655,262,262,1
656,928,928,1
657,3861,3861,1
658,9345,9345,1
659,4325,4325,1
660,6855,6855,1
661,4660,4660,1
662,8724,8724,1
663,5527,5527,1
664,7051,7051,1
665,2374,2374,1
666,1117,1117,1
667,1407,1407,1
668,2409,2409,1
669,4992,4992,1
670,8672,8672,1
671,6286,6286,1
672,4166,4166,1
673,6358,6358,1
674,9339,9339,1
675,5536,5536,1
676,2485,2485,1
677,2029,2029,1
678,6176,6176,1
679,3936,3936,1
680,142,142,1
681,2381,2381,1
682,1741,1741,1
683,248,248,1
684,8095,8095,1
685,9076,9076,1
686,3837,3837,1
687,2257,2257,1
688,9587,9587,1
689,3329,3329,1
690,1861,1861,1
691,6859,6859,1
692,514,514,1
693,3819,3819,1
694,8341,8341,1
695,5695,5695,1
696,1606,1606,1
697,8038,8038,1
698,2886,2886,1
699,8285,8285,1
700,8795,8795,1
701,2824,2824,1
702,8193,8193,1
703,229,229,1
704,3199,3199,1
705,4573,4573,1
706,7888,7888,1
707,4451,4451,1
708,6779,6779,1
709,9764,9764,1
710,4357,4357,1
711,493,493,1
712,2600,2600,1
713,872,872,1
714,2109,2109,1
715,7612,7612,1
716,7487,7487,1
717,9279,9279,1
718,6274,6274,1
719,1685,1685,1
720,84,84,1
721,9252,9252,1
722,5261,5261,1
723,8433,8433,1
724,8399,8399,1
725,8534,8534,1
726,8793,8793,1
727,9006,9006,1
728,9694,9694,1
729,8215,8215,1
730,6296,6296,1
731,5044,5044,1
732,9233,9233,1
733,3037,3037,1
734,2838,2838,1
735,6583,6583,1
736,9198,9198,1
737,2507,2507,1
738,3382,3382,1
739,3933,3933,1
740,2465,2465,1
741,7039,7039,1
742,939,939,1
743,4179,4179,1
744,4141,4141,1
745,8009,8009,1
746,3859,3859,1
747,6739,6739,1
748,2536,2536,1
749,7459,7459,1
750,1143,1143,1
751,4827,4827,1
752,3506,3506,1
753,9825,9825,1
754,6211,6211,1
755,1107,1107,1
756,278,278,1
757,9582,9582,1
758,7486,7486,1
759,7869,7869,1
760,8134,8134,1
761,4094,4094,1
762,7791,7791,1
763,2337,2337,1
764,6465,6465,1
765,2251,2251,1
766,4143,4143,1
767,3332,3332,1
768,3108,3108,1
769,902,902,1
770,8679,8679,1
771,9850,9850,1
772,3058,3058,1
773,7982,7982,1
774,1392,1392,1
775,1119,1119,1
776,3650,3650,1
777,6071,6071,1
778,6424,6424,1
779,9252,9252,1
780,2823,2823,1
781,3675,3675,1
782,3245,3245,1
783,8139,8139,1
784,2954,2954,1
785,777,777,1
786,2022,2022,1
787,8597,8597,1
788,3522,3522,1
789,471,471,1
790,7201,7201,1
791,6308,6308,1
792,3217,3217,1
793,1879,1879,1
794,447,447,1
795,4098,4098,1
796,8108,8108,1
797,654,654,1
798,2261,2261,1
799,7185,7185,1
800,437,437,1
801,9990,9990,1
802,4339,4339,1
803,8295,8295,1
804,4664,4664,1
805,1018,1018,1
806,9990,9990,1
807,941,941,1
808,9083,9083,1
809,7633,7633,1
810,1295,1295,1
811,2473,2473,1
812,3685,3685,1
813,7607,7607,1
814,6123,6123,1
815,1868,1868,1
816,8014,8014,1
817,9959,9959,1
818,7315,7315,1
819,1535,1535,1
820,7097,7097,1
821,6495,6495,1
822,1708,1708,1
823,6902,6902,1
824,5110,5110,1
825,4535,4535,1
826,9150,9150,1
827,2465,2465,1
828,9965,9965,1
829,5570,5570,1
830,9889,9889,1
831,2657,2657,1
832,3981,3981,1
833,7572,7572,1
834,6992,6992,1
835,4818,4818,1
836,7848,7848,1
837,3158,3158,1
838,919,919,1
839,7802,7802,1
840,4280,4280,1
841,3031,3031,1
842,5791,5791,1
843,3246,3246,1
844,637,637,1
845,8981,8981,1
846,6207,6207,1
847,1436,1436,1
848,9002,9002,1
849,2262,2262,1
850,4753,4753,1
851,3747,3747,1
852,6519,6519,1
853,9134,9134,1
854,2502,2502,1
855,5959,5959,1
856,3935,3935,1
857,2985,2985,1
858,1564,1564,1
859,7927,7927,1
860,6980,6980,1
861,2740,2740,1
862,2382,2382,1
863,8556,8556,1
864,4153,4153,1
865,660,660,1
866,3486,3486,1
867,3655,3655,1
868,1740,1740,1
869,5125,5125,1
870,3605,3605,1
871,9017,9017,1
872,773,773,1
873,5599,5599,1
874,6286,6286,1
875,293,293,1
876,1791,1791,1
877,8042,8042,1
878,4787,4787,1
879,4587,4587,1
880,7106,7106,1
881,8438,8438,1
882,4149,4149,1
883,7893,7893,1
884,109,109,1
885,5159,5159,1
886,8778,8778,1
887,476,476,1
888,3342,3342,1
889,6771,6771,1
890,9195,9195,1
891,7528,7528,1
892,2465,2465,1
893,447,447,1
894,9490,9490,1
895,8073,8073,1
896,8531,8531,1
897,5243,5243,1
898,5725,5725,1
899,271,271,1
900,6174,6174,1
901,7361,7361,1
902,2919,2919,1
903,8211,8211,1
904,8317,8317,1
905,701,701,1
906,9132,9132,1
907,7656,7656,1
908,4353,4353,1
909,7260,7260,1
910,1253,1253,1
911,5116,5116,1
912,259,259,1
913,4499,4499,1
914,1693,1693,1
915,8319,8319,1
916,4979,4979,1
917,1291,1291,1
918,6957,6957,1
919,3694,3694,1
920,5535,5535,1
921,9117,9117,1
922,6102,6102,1
923,8084,8084,1
924,411,411,1
925,8814,8814,1
926,7244,7244,1
927,41,41,1
928,7681,7681,1
929,2878,2878,1
930,3743,3743,1
931,295,295,1
932,4751,4751,1
933,525,525,1
934,4096,4096,1
935,9141,9141,1
936,8524,8524,1
937,1987,1987,1
938,4288,4288,1
939,322,322,1
940,9945,9945,1
941,6124,6124,1
942,9757,9757,1
943,8602,8602,1
944,497,497,1
945,417,417,1
946,685,685,1
947,7843,7843,1
948,3461,3461,1
949,8577,8577,1
950,702,702,1
951,9224,9224,1
952,7015,7015,1
953,6031,6031,1
954,6826,6826,1
955,6301,6301,1
956,3227,3227,1
957,8643,8643,1
958,2064,2064,1
959,7894,7894,1
960,7261,7261,1
961,7216,7216,1
962,7990,7990,1
963,3681,3681,1
964,4071,4071,1
965,3441,3441,1
966,2611,2611,1
967,3972,3972,1
968,8957,8957,1
969,6417,6417,1
970,4911,4911,1
971,1179,1179,1
972,4873,4873,1
973,1787,1787,1
974,97,97,1
975,7227,7227,1
976,4317,4317,1
977,5914,5914,1
978,3468,3468,1
979,7430,7430,1
980,4272,4272,1
981,1502,1502,1
982,2931,2931,1
983,6822,6822,1
984,745,745,1
985,1976,1976,1
986,9843,9843,1
987,2981,2981,1
988,6189,6189,1
989,754,754,1
990,8017,8017,1
991,3579,3579,1
992,3408,3408,1
993,1450,1450,1
994,4144,4144,1
995,5138,5138,1
996,5267,5267,1
997,6413,6413,1
998,2350,2350,1
999,6078,6078,1
1000,3589,3589,1
